10
9
0 40 116 82 29 120 89 9 11
9
0 38 111 113 77 12 5 98 35
18
0 70 2 107 7 125 32 43 41 50 52 57 105 37 78 80 55 110
15
0 129 79 19 92 36 46 39 22 121 13 101 90 73 122
13
0 15 61 4 10 126 106 83 24 63 68 87 85
8
0 127 114 58 84 95 3 56
20
0 44 75 108 60 128 123 25 96 69 6 62 67 97 109 93 76 102 64 100
18
0 49 45 17 20 21 54 59 119 48 71 91 72 74 51 8 81 118
7
0 104 27 124 65 66 86
22
0 1 117 34 53 16 30 33 26 18 99 115 94 23 14 28 88 42 103 47 112 31
